TYPE : Vertex Cover
DIMENSION: 34
EDGE_DATA_SECTION:
0 2
0 5
0 7
0 11
0 12
0 17
0 18
0 27
0 32
1 3
1 8
1 13
1 18
1 19
1 31
1 32
2 6
2 7
2 8
2 10
2 11
2 19
2 24
2 29
2 30
3 5
3 10
3 15
3 32
3 33
4 6
4 18
4 22
4 25
4 27
4 28
4 31
5 11
5 15
5 16
5 24
5 28
5 30
5 31
5 33
6 7
6 15
6 20
6 23
6 24
6 26
6 27
7 10
7 12
7 13
7 14
7 18
7 24
7 29
7 33
8 10
8 31
8 33
9 10
9 11
9 22
10 18
10 20
10 21
10 22
10 23
10 24
10 25
10 28
11 27
11 30
12 21
12 22
12 25
12 27
12 30
12 31
13 14
13 16
13 23
14 22
14 24
14 25
14 29
14 32
15 18
15 26
16 17
16 20
16 26
16 30
16 32
17 18
17 21
17 26
18 30
18 31
18 32
20 21
20 33
21 27
22 32
23 24
23 29
23 33
24 26
24 28
24 32
25 27
25 29
25 32
26 28
27 30
27 32
28 30
28 32
29 32
-1
VERTEX_DEGREE:
9.0 7.0 10.0 6.0 7.0 10.0 9.0 11.0 5.0 3.0 13.0 6.0 8.0 5.0 7.0 5.0 7.0 5.0 10.0 2.0 5.0 5.0 6.0 6.0 10.0 7.0 6.0 9.0 7.0 6.0 8.0 6.0 12.0 6.0
VERTEX_COVER:
0 1 2 4 5 7 9 10 12 14 15 16 17 20 23 24 26 27 29 30 31 32 33
EOF
